working_folder/out.txt
Problem:    
Rows:       143
Columns:    336 (336 integer, 336 binary)
Non-zeros:  1650
Status:     INTEGER OPTIMAL
Objective:  obj = 44.5 (MINimum)

   No.   Row name        Activity     Lower bound   Upper bound
------ ------------    ------------- ------------- -------------
     1 c0                          5             4               
     2 c1                          3             3               
     3 c2                          1             1               
     4 c3                          1             1               
     5 c4                          1             1               
     6 c5                          5             4               
     7 c6                          3             3               
     8 c7                          1             1               
     9 c8                          1             1               
    10 c9                          1             1               
    11 c10                         5             4               
    12 c11                         3             3               
    13 c12                         1             1               
    14 c13                         1             1               
    15 c14                         1             1               
    16 c15                         4             4               
    17 c16                         3             3               
    18 c17                         1             1               
    19 c18                         1             1               
    20 c19                         1             1               
    21 c20                         6             4               
    22 c21                         3             3               
    23 c22                         1             1               
    24 c23                         1             1               
    25 c24                         1             1               
    26 c25                         3             3               
    27 c26                         2                           4 
    28 c27                         0                           2 
    29 c28                         1                           3 
    30 c29                         3             3               
    31 c30                         1             1               
    32 c31                         1             1               
    33 c32                         1             1               
    34 c33                         5             3               
    35 c34                         2                           4 
    36 c35                         1                           2 
    37 c36                         2                           3 
    38 c37                         3             3               
    39 c38                         1             1               
    40 c39                         1             1               
    41 c40                         1             1               
    42 c41                         1             0               
    43 c42                         0             0               
    44 c43                         2             0               
    45 c44                         2             0               
    46 c45                         0             0               
    47 c46                         1             0               
    48 c47                         2             0               
    49 c48                         0             0               
    50 c49                         1             0               
    51 c50                         1             0               
    52 c51                         0             0               
    53 c52                         2             0               
    54 c53                         2             0               
    55 c54                         0             0               
    56 c55                         2             0               
    57 c56                         1             0               
    58 c57                         0             0               
    59 c58                         1             0               
    60 c59                         1             0               
    61 c60                         0             0               
    62 c61                         2             0               
    63 c62                         0                           1 
    64 c63                         1                           1 
    65 c64                         1                           1 
    66 c65                         1                           1 
    67 c66                         1                           1 
    68 c67                         1                           1 
    69 c68                         1                           1 
    70 c69                         1                           1 
    71 c70                         1                           1 
    72 c71                         1                           1 
    73 c72                         1                           1 
    74 c73                         1                           1 
    75 c74                         1                           1 
    76 c75                         1                           1 
    77 c76                         1                           1 
    78 c77                         1                           1 
    79 c78                         1                           1 
    80 c79                         0                           1 
    81 c80                         1                           1 
    82 c81                         1                           1 
    83 c82                         1                           1 
    84 c83                         1                           1 
    85 c84                         1                           1 
    86 c85                         1                           1 
    87 c86                         1                           1 
    88 c87                         0                           1 
    89 c88                         1                           1 
    90 c89                         1                           1 
    91 c90                         0                           1 
    92 c91                         1                           1 
    93 c92                         1                           1 
    94 c93                         1                           1 
    95 c94                         0                           1 
    96 c95                         1                           1 
    97 c96                         1                           1 
    98 c97                         1                           1 
    99 c98                         1                           1 
   100 c99                         1                           1 
   101 c100                        1                           1 
   102 c101                        1                           1 
   103 c102                        1                           1 
   104 c103                        1                           1 
   105 c104                        1                           1 
   106 c105                        1                           1 
   107 c106                        1                           1 
   108 c107                        1                           1 
   109 c108                        1                           1 
   110 c109                        1                           1 
   111 c110                        0                           1 
   112 c111                        0                           1 
   113 c112                        1                           1 
   114 c113                        0                           1 
   115 c114                        1                           1 
   116 c115                        1                           1 
   117 c116                        1                           1 
   118 c117                        1                           1 
   119 c118                        0                           1 
   120 c119                        1                           1 
   121 c120                        1                           1 
   122 c121                        1                           1 
   123 c122                        1                           1 
   124 c123                        1                           1 
   125 c124                        1                           1 
   126 c125                        6             6             = 
   127 c126                        6             6             = 
   128 c127                        6             6             = 
   129 c128                        6             6             = 
   130 c129                        6             6             = 
   131 c130                        6             6             = 
   132 c131                        6             6             = 
   133 c132                        6             6             = 
   134 c133                        6             6             = 
   135 c134                       44            44             = 
   136 c135                       44            44             = 
   137 c136                       44            44             = 
   138 c137                       44            44             = 
   139 c138                       44            44             = 
   140 c139                       44            44             = 
   141 c140                       44            44             = 
   142 c141                       44            44             = 
   143 c142                       44            44             = 

   No. Column name       Activity     Lower bound   Upper bound
------ ------------    ------------- ------------- -------------
     1 soft_c_ag1_0 *              1             0             1 
     2 soft_c_ag1_1 *              1             0             1 
     3 soft_c_ag1_2 *              1             0             1 
     4 soft_c_ag1_3 *              1             0             1 
     5 soft_c_ag1_4 *              1             0             1 
     6 soft_c_ag1_5 *              1             0             1 
     7 soft_c_ag1_6 *              1             0             1 
     8 soft_c_ag2_0 *              1             0             1 
     9 soft_c_ag2_1 *              1             0             1 
    10 soft_c_ag2_2 *              1             0             1 
    11 soft_c_ag2_3 *              0             0             1 
    12 soft_c_ag2_4 *              1             0             1 
    13 soft_c_ag2_5 *              0             0             1 
    14 soft_c_ag2_6 *              1             0             1 
    15 soft_c_ag3_0 *              1             0             1 
    16 soft_c_ag3_1 *              1             0             1 
    17 soft_c_ag3_2 *              1             0             1 
    18 soft_c_ag3_3 *              1             0             1 
    19 soft_c_ag3_4 *              1             0             1 
    20 soft_c_ag3_5 *              1             0             1 
    21 soft_c_ag3_6 *              1             0             1 
    22 s0_0_m0      *              0             0             1 
    23 s0_0_m1      *              0             0             1 
    24 s0_0_m2      *              0             0             1 
    25 s0_0_a0      *              0             0             1 
    26 s0_0_a1      *              0             0             1 
    27 s1_0_m0      *              0             0             1 
    28 s1_0_m1      *              0             0             1 
    29 s1_0_m2      *              1             0             1 
    30 s1_0_a0      *              0             0             1 
    31 s1_0_a1      *              0             0             1 
    32 s2_0_m0      *              0             0             1 
    33 s2_0_m1      *              0             0             1 
    34 s2_0_m2      *              0             0             1 
    35 s2_0_a0      *              1             0             1 
    36 s2_0_a1      *              0             0             1 
    37 s3_0_m0      *              0             0             1 
    38 s3_0_m1      *              0             0             1 
    39 s3_0_m2      *              1             0             1 
    40 s3_0_a0      *              0             0             1 
    41 s3_0_a1      *              0             0             1 
    42 s4_0_m0      *              0             0             1 
    43 s4_0_m1      *              0             0             1 
    44 s4_0_m2      *              1             0             1 
    45 s4_0_a0      *              0             0             1 
    46 s4_0_a1      *              0             0             1 
    47 s5_0_m0      *              0             0             1 
    48 s5_0_m1      *              0             0             1 
    49 s5_0_m2      *              0             0             1 
    50 s5_0_a0      *              1             0             1 
    51 s5_0_a1      *              0             0             1 
    52 s6_0_m0      *              0             0             1 
    53 s6_0_m1      *              0             0             1 
    54 s6_0_m2      *              0             0             1 
    55 s6_0_a0      *              1             0             1 
    56 s6_0_a1      *              0             0             1 
    57 s7_0_m0      *              0             0             1 
    58 s7_0_m1      *              0             0             1 
    59 s7_0_m2      *              1             0             1 
    60 s7_0_a0      *              0             0             1 
    61 s7_0_a1      *              0             0             1 
    62 s8_0_m0      *              0             0             1 
    63 s8_0_m1      *              0             0             1 
    64 s8_0_m2      *              1             0             1 
    65 s8_0_a0      *              0             0             1 
    66 s8_0_a1      *              0             0             1 
    67 s0_1_m0      *              0             0             1 
    68 s0_1_m1      *              0             0             1 
    69 s0_1_m2      *              0             0             1 
    70 s0_1_a0      *              1             0             1 
    71 s0_1_a1      *              0             0             1 
    72 s1_1_m0      *              1             0             1 
    73 s1_1_m1      *              0             0             1 
    74 s1_1_m2      *              0             0             1 
    75 s1_1_a0      *              0             0             1 
    76 s1_1_a1      *              0             0             1 
    77 s2_1_m0      *              1             0             1 
    78 s2_1_m1      *              0             0             1 
    79 s2_1_m2      *              0             0             1 
    80 s2_1_a0      *              0             0             1 
    81 s2_1_a1      *              0             0             1 
    82 s3_1_m0      *              1             0             1 
    83 s3_1_m1      *              0             0             1 
    84 s3_1_m2      *              0             0             1 
    85 s3_1_a0      *              0             0             1 
    86 s3_1_a1      *              0             0             1 
    87 s4_1_m0      *              0             0             1 
    88 s4_1_m1      *              0             0             1 
    89 s4_1_m2      *              0             0             1 
    90 s4_1_a0      *              1             0             1 
    91 s4_1_a1      *              0             0             1 
    92 s5_1_m0      *              0             0             1 
    93 s5_1_m1      *              0             0             1 
    94 s5_1_m2      *              1             0             1 
    95 s5_1_a0      *              0             0             1 
    96 s5_1_a1      *              0             0             1 
    97 s6_1_m0      *              0             0             1 
    98 s6_1_m1      *              0             0             1 
    99 s6_1_m2      *              1             0             1 
   100 s6_1_a0      *              0             0             1 
   101 s6_1_a1      *              0             0             1 
   102 s7_1_m0      *              0             0             1 
   103 s7_1_m1      *              0             0             1 
   104 s7_1_m2      *              0             0             1 
   105 s7_1_a0      *              1             0             1 
   106 s7_1_a1      *              0             0             1 
   107 s8_1_m0      *              0             0             1 
   108 s8_1_m1      *              0             0             1 
   109 s8_1_m2      *              0             0             1 
   110 s8_1_a0      *              0             0             1 
   111 s8_1_a1      *              0             0             1 
   112 s0_2_m0      *              0             0             1 
   113 s0_2_m1      *              0             0             1 
   114 s0_2_m2      *              0             0             1 
   115 s0_2_a0      *              1             0             1 
   116 s0_2_a1      *              0             0             1 
   117 s1_2_m0      *              0             0             1 
   118 s1_2_m1      *              0             0             1 
   119 s1_2_m2      *              1             0             1 
   120 s1_2_a0      *              0             0             1 
   121 s1_2_a1      *              0             0             1 
   122 s2_2_m0      *              1             0             1 
   123 s2_2_m1      *              0             0             1 
   124 s2_2_m2      *              0             0             1 
   125 s2_2_a0      *              0             0             1 
   126 s2_2_a1      *              0             0             1 
   127 s3_2_m0      *              1             0             1 
   128 s3_2_m1      *              0             0             1 
   129 s3_2_m2      *              0             0             1 
   130 s3_2_a0      *              0             0             1 
   131 s3_2_a1      *              0             0             1 
   132 s4_2_m0      *              0             0             1 
   133 s4_2_m1      *              0             0             1 
   134 s4_2_m2      *              0             0             1 
   135 s4_2_a0      *              1             0             1 
   136 s4_2_a1      *              0             0             1 
   137 s5_2_m0      *              0             0             1 
   138 s5_2_m1      *              0             0             1 
   139 s5_2_m2      *              1             0             1 
   140 s5_2_a0      *              0             0             1 
   141 s5_2_a1      *              0             0             1 
   142 s6_2_m0      *              0             0             1 
   143 s6_2_m1      *              0             0             1 
   144 s6_2_m2      *              0             0             1 
   145 s6_2_a0      *              1             0             1 
   146 s6_2_a1      *              0             0             1 
   147 s7_2_m0      *              0             0             1 
   148 s7_2_m1      *              0             0             1 
   149 s7_2_m2      *              0             0             1 
   150 s7_2_a0      *              0             0             1 
   151 s7_2_a1      *              0             0             1 
   152 s8_2_m0      *              1             0             1 
   153 s8_2_m1      *              0             0             1 
   154 s8_2_m2      *              0             0             1 
   155 s8_2_a0      *              0             0             1 
   156 s8_2_a1      *              0             0             1 
   157 s0_3_m0      *              0             0             1 
   158 s0_3_m1      *              0             0             1 
   159 s0_3_m2      *              0             0             1 
   160 s0_3_a0      *              1             0             1 
   161 s0_3_a1      *              0             0             1 
   162 s1_3_m0      *              0             0             1 
   163 s1_3_m1      *              0             0             1 
   164 s1_3_m2      *              0             0             1 
   165 s1_3_a0      *              0             0             1 
   166 s1_3_a1      *              0             0             1 
   167 s2_3_m0      *              1             0             1 
   168 s2_3_m1      *              0             0             1 
   169 s2_3_m2      *              0             0             1 
   170 s2_3_a0      *              0             0             1 
   171 s2_3_a1      *              0             0             1 
   172 s3_3_m0      *              1             0             1 
   173 s3_3_m1      *              0             0             1 
   174 s3_3_m2      *              0             0             1 
   175 s3_3_a0      *              0             0             1 
   176 s3_3_a1      *              0             0             1 
   177 s4_3_m0      *              0             0             1 
   178 s4_3_m1      *              0             0             1 
   179 s4_3_m2      *              0             0             1 
   180 s4_3_a0      *              1             0             1 
   181 s4_3_a1      *              0             0             1 
   182 s5_3_m0      *              0             0             1 
   183 s5_3_m1      *              0             0             1 
   184 s5_3_m2      *              0             0             1 
   185 s5_3_a0      *              0             0             1 
   186 s5_3_a1      *              0             0             1 
   187 s6_3_m0      *              0             0             1 
   188 s6_3_m1      *              0             0             1 
   189 s6_3_m2      *              0             0             1 
   190 s6_3_a0      *              1             0             1 
   191 s6_3_a1      *              0             0             1 
   192 s7_3_m0      *              1             0             1 
   193 s7_3_m1      *              0             0             1 
   194 s7_3_m2      *              0             0             1 
   195 s7_3_a0      *              0             0             1 
   196 s7_3_a1      *              0             0             1 
   197 s8_3_m0      *              1             0             1 
   198 s8_3_m1      *              0             0             1 
   199 s8_3_m2      *              0             0             1 
   200 s8_3_a0      *              0             0             1 
   201 s8_3_a1      *              0             0             1 
   202 s0_4_m0      *              0             0             1 
   203 s0_4_m1      *              0             0             1 
   204 s0_4_m2      *              1             0             1 
   205 s0_4_a0      *              0             0             1 
   206 s0_4_a1      *              0             0             1 
   207 s1_4_m0      *              0             0             1 
   208 s1_4_m1      *              0             0             1 
   209 s1_4_m2      *              0             0             1 
   210 s1_4_a0      *              1             0             1 
   211 s1_4_a1      *              0             0             1 
   212 s2_4_m0      *              0             0             1 
   213 s2_4_m1      *              0             0             1 
   214 s2_4_m2      *              1             0             1 
   215 s2_4_a0      *              0             0             1 
   216 s2_4_a1      *              0             0             1 
   217 s3_4_m0      *              0             0             1 
   218 s3_4_m1      *              0             0             1 
   219 s3_4_m2      *              1             0             1 
   220 s3_4_a0      *              0             0             1 
   221 s3_4_a1      *              0             0             1 
   222 s4_4_m0      *              0             0             1 
   223 s4_4_m1      *              0             0             1 
   224 s4_4_m2      *              1             0             1 
   225 s4_4_a0      *              0             0             1 
   226 s4_4_a1      *              0             0             1 
   227 s5_4_m0      *              0             0             1 
   228 s5_4_m1      *              0             0             1 
   229 s5_4_m2      *              0             0             1 
   230 s5_4_a0      *              1             0             1 
   231 s5_4_a1      *              0             0             1 
   232 s6_4_m0      *              0             0             1 
   233 s6_4_m1      *              0             0             1 
   234 s6_4_m2      *              1             0             1 
   235 s6_4_a0      *              0             0             1 
   236 s6_4_a1      *              0             0             1 
   237 s7_4_m0      *              0             0             1 
   238 s7_4_m1      *              0             0             1 
   239 s7_4_m2      *              0             0             1 
   240 s7_4_a0      *              1             0             1 
   241 s7_4_a1      *              0             0             1 
   242 s8_4_m0      *              1             0             1 
   243 s8_4_m1      *              0             0             1 
   244 s8_4_m2      *              0             0             1 
   245 s8_4_a0      *              0             0             1 
   246 s8_4_a1      *              0             0             1 
   247 s0_5_m0      *              0             0             1 
   248 s0_5_m1      *              0             0             1 
   249 s0_5_m2      *              1             0             1 
   250 s0_5_a0      *              0             0             1 
   251 s0_5_a1      *              0             0             1 
   252 s1_5_m0      *              0             0             1 
   253 s1_5_m1      *              0             0             1 
   254 s1_5_m2      *              0             0             1 
   255 s1_5_a0      *              1             0             1 
   256 s1_5_a1      *              0             0             1 
   257 s2_5_m0      *              0             0             1 
   258 s2_5_m1      *              0             0             1 
   259 s2_5_m2      *              1             0             1 
   260 s2_5_a0      *              0             0             1 
   261 s2_5_a1      *              0             0             1 
   262 s3_5_m0      *              0             0             1 
   263 s3_5_m1      *              0             0             1 
   264 s3_5_m2      *              0             0             1 
   265 s3_5_a0      *              0             0             1 
   266 s3_5_a1      *              0             0             1 
   267 s4_5_m0      *              0             0             1 
   268 s4_5_m1      *              0             0             1 
   269 s4_5_m2      *              0             0             1 
   270 s4_5_a0      *              0             0             1 
   271 s4_5_a1      *              0             0             1 
   272 s5_5_m0      *              0             0             1 
   273 s5_5_m1      *              0             0             1 
   274 s5_5_m2      *              0             0             1 
   275 s5_5_a0      *              1             0             1 
   276 s5_5_a1      *              0             0             1 
   277 s6_5_m0      *              0             0             1 
   278 s6_5_m1      *              0             0             1 
   279 s6_5_m2      *              0             0             1 
   280 s6_5_a0      *              0             0             1 
   281 s6_5_a1      *              0             0             1 
   282 s7_5_m0      *              0             0             1 
   283 s7_5_m1      *              0             0             1 
   284 s7_5_m2      *              0             0             1 
   285 s7_5_a0      *              1             0             1 
   286 s7_5_a1      *              0             0             1 
   287 s8_5_m0      *              1             0             1 
   288 s8_5_m1      *              0             0             1 
   289 s8_5_m2      *              0             0             1 
   290 s8_5_a0      *              0             0             1 
   291 s8_5_a1      *              0             0             1 
   292 s0_6_m0      *              0             0             1 
   293 s0_6_m1      *              0             0             1 
   294 s0_6_m2      *              0             0             1 
   295 s0_6_a0      *              1             0             1 
   296 s0_6_a1      *              0             0             1 
   297 s1_6_m0      *              1             0             1 
   298 s1_6_m1      *              0             0             1 
   299 s1_6_m2      *              0             0             1 
   300 s1_6_a0      *              0             0             1 
   301 s1_6_a1      *              0             0             1 
   302 s2_6_m0      *              0             0             1 
   303 s2_6_m1      *              0             0             1 
   304 s2_6_m2      *              0             0             1 
   305 s2_6_a0      *              0             0             1 
   306 s2_6_a1      *              0             0             1 
   307 s3_6_m0      *              1             0             1 
   308 s3_6_m1      *              0             0             1 
   309 s3_6_m2      *              0             0             1 
   310 s3_6_a0      *              0             0             1 
   311 s3_6_a1      *              0             0             1 
   312 s4_6_m0      *              0             0             1 
   313 s4_6_m1      *              0             0             1 
   314 s4_6_m2      *              0             0             1 
   315 s4_6_a0      *              1             0             1 
   316 s4_6_a1      *              0             0             1 
   317 s5_6_m0      *              1             0             1 
   318 s5_6_m1      *              0             0             1 
   319 s5_6_m2      *              0             0             1 
   320 s5_6_a0      *              0             0             1 
   321 s5_6_a1      *              0             0             1 
   322 s6_6_m0      *              0             0             1 
   323 s6_6_m1      *              0             0             1 
   324 s6_6_m2      *              0             0             1 
   325 s6_6_a0      *              1             0             1 
   326 s6_6_a1      *              0             0             1 
   327 s7_6_m0      *              0             0             1 
   328 s7_6_m1      *              0             0             1 
   329 s7_6_m2      *              1             0             1 
   330 s7_6_a0      *              0             0             1 
   331 s7_6_a1      *              0             0             1 
   332 s8_6_m0      *              0             0             1 
   333 s8_6_m1      *              0             0             1 
   334 s8_6_m2      *              1             0             1 
   335 s8_6_a0      *              0             0             1 
   336 s8_6_a1      *              0             0             1 

Integer feasibility conditions:

KKT.PE: max.abs.err = 0.00e+00 on row 0
        max.rel.err = 0.00e+00 on row 0
        High quality

KKT.PB: max.abs.err = 0.00e+00 on row 0
        max.rel.err = 0.00e+00 on row 0
        High quality

End of output
